382 383 385 
408 409 411 
437 438 440 
465 466 468 
494 496 498 
527 529 531 
556 558 560 
589 590 592 
619 620 622 
649 650 652 
679 680 682 
709 710 712 
739 740 742 
769 770 772 
799 800 802 
829 830 832 
859 860 862 
889 890 892 
919 920 922 
949 950 952 
979 981 982 
1009 1011 1012 
1039 1041 1042 
1069 1071 1072 
1099 1101 1102 
1129 1131 1132 
1159 1160 1162 
1189 1190 1192 
1249 1250 1252 
1309 1310 1312 
1369 1370 1372 
1429 1430 1432 
